Ni4
1.0
   3.41    0.0000000000000000    0.0000000000000002
   0.0000000000000006    3.41    0.0000000000000002
   0.0000000000000000    0.0000000000000000    3.41
Ni
4
direct
   0.0000000000000000    0.0000000000000000    0.0000000000000000 Ni
   0.0000000000000000    0.5000000000000000    0.5000000000000000 Ni
   0.5000000000000000    0.0000000000000000    0.5000000000000000 Ni
   0.5000000000000000    0.5000000000000000    0.0000000000000000 Ni
